(set-info :smt-lib-version 2.7)
(set-logic ALL)
(set-info :source |
Generated on: 2026-06-22
Generator: pog2smtlib-2.7 github.com/CLEARSY/pog2smtlib-2.7 (-l HO_ALL -rpX)
Application: Discharging a proof obligation generated by aTelierB from an anonymized B machine
Target solver: CVC5 (--mbqi --enum-inst)
Time limit: 1200.0
|)
(set-info :license "www.gnu.org/licenses/gpl-3.0.en.html")
(set-info :category "industrial")
(set-info :status unknown)

(set-option :print-success false)
(define-sort |Z| () Int)
(declare-sort P 1)
(declare-sort |s19| 0)
(declare-datatype C (par (T1 T2) ((maplet (fst T1) (snd T2)))))
(define-sort |POW Z| () (P |Z|))
(define-sort |POW s19| () (P |s19|))
(define-sort |(s19 x Z)| () (C |s19| |Z|))
(declare-fun |set.in Z| (|Z| |POW Z|) Bool)
(declare-fun |set.in s19| (|s19| |POW s19|) Bool)
(define-sort |POW (s19 x Z)| () (P |(s19 x Z)|))
(declare-fun |set.in (s19 x Z)| (|(s19 x Z)| |POW (s19 x Z)|) Bool)
(define-sort |POW POW (s19 x Z)| () (P |POW (s19 x Z)|))
(declare-fun |set.subseteq (s19 x Z)| (|POW (s19 x Z)| |POW (s19 x Z)|) Bool)
(assert (!
    (forall ((s |POW (s19 x Z)|) (t |POW (s19 x Z)|))
      (=
        (|set.subseteq (s19 x Z)| s t)
        (forall ((e |(s19 x Z)|)) (=> (|set.in (s19 x Z)| e s) (|set.in (s19 x Z)| e t)))
      )
    )
    :named |ax.set.subseteq (s19 x Z)|))
(declare-fun |set.in POW (s19 x Z)| (|POW (s19 x Z)| |POW POW (s19 x Z)|) Bool)
(declare-fun |sub-sets (s19 x Z)| (|POW (s19 x Z)|) |POW POW (s19 x Z)|)
(assert (!
  (forall ((s |POW (s19 x Z)|) (t |POW (s19 x Z)|))
    (=
      (|set.in POW (s19 x Z)| s (|sub-sets (s19 x Z)| t))
      (|set.subseteq (s19 x Z)| s t)))
  :named |ax.sub-sets (s19 x Z)|))
(declare-fun |set.product s19 Z| (|POW s19| |POW Z|) |POW (s19 x Z)|)
(assert (!
  (forall ((s1 |POW s19|) (s2 |POW Z|))
    (forall ((p |(s19 x Z)|))
      (= (|set.in (s19 x Z)| p (|set.product s19 Z| s1 s2))
        (and (|set.in s19| (fst p) s1) (|set.in Z| (snd p) s2)))))
  :named |ax.set.in.product.1 (s19 x Z)|))
(assert (!
  (forall ((s1 |POW s19|) (s2 |POW Z|))
    (forall ((x1 |s19|) (x2 |Z|))
      (= (|set.in (s19 x Z)| (maplet x1 x2) (|set.product s19 Z| s1 s2))
        (and (|set.in s19| x1 s1) (|set.in Z| x2 s2)))))
  :named |ax.set.in.product.2 (s19 x Z)|))
(declare-fun |relations s19 Z| (|POW s19| |POW Z|) |POW POW (s19 x Z)|)
(assert (!
  (forall ((X |POW s19|) (Y |POW Z|))
    (= (|relations s19 Z| X Y)
       (|sub-sets (s19 x Z)| (|set.product s19 Z| X Y))))
    :named |def.relations (s19 x Z)|))
(declare-fun |functions s19 Z| (|POW s19| |POW Z|) |POW POW (s19 x Z)|)
(assert (!
  (forall ((X |POW s19|) (Y |POW Z|))
    (forall ((f |POW (s19 x Z)|))
      (= (|set.in POW (s19 x Z)| f (|functions s19 Z| X Y))
         (forall ((p |(s19 x Z)|) (q |(s19 x Z)|))
           (=> (and (|set.in (s19 x Z)| p f) (|set.in (s19 x Z)| q f) (= (fst p) (fst q)))
               (= (snd p) (snd q)))))))
:named |ax:set.in.functions (s19 x Z)|))
(declare-fun |rel.domain s19 Z| (|POW (s19 x Z)|) |POW s19|)
(assert (!
  (forall ((r |POW (s19 x Z)|) (e |s19|))
    (= (|set.in s19| e (|rel.domain s19 Z| r))
       (exists ((y |Z|)) (|set.in (s19 x Z)| (maplet e y) r))))
  :named |ax:set.in.domain (s19 x Z)|))
(declare-fun |functions.partial s19 Z| (|POW s19| |POW Z|) |POW POW (s19 x Z)|)
(assert (!
  (forall ((e1 |POW s19|) (e2 |POW Z|))
    (forall ((f |POW (s19 x Z)|))
      (= (|set.in POW (s19 x Z)| f (|functions.partial s19 Z| e1 e2))
         (and (|set.in POW (s19 x Z)| f (|relations s19 Z| e1 e2))
              (|set.in POW (s19 x Z)| f (|functions s19 Z| e1 e2))))))
  :named |ax:def.pfun (s19 x Z)|)
)
(declare-fun |relations.total s19 Z| (|POW s19| |POW Z|) |POW POW (s19 x Z)|)
(assert (!
  (forall ((X |POW s19|) (Y |POW Z|))
    (forall ((f |POW (s19 x Z)|))
      (= (|set.in POW (s19 x Z)| f (|relations.total s19 Z| X Y))
         (= (|rel.domain s19 Z| f) X))))
 :named |ax:set.in.relations.total (s19 x Z)|))
(declare-const |set.empty (s19 x Z)| |POW (s19 x Z)|)
(assert (!
  (forall ((e |(s19 x Z)|)) (not (|set.in (s19 x Z)| e |set.empty (s19 x Z)|)))
  :named |ax.set.in.empty (s19 x Z)|))
(declare-fun |functions.total s19 Z| (|POW s19| |POW Z|) |POW POW (s19 x Z)|)
(assert (!
  (forall ((e1 |POW s19|) (e2 |POW Z|))
    (forall ((f |POW (s19 x Z)|))
      (= (|set.in POW (s19 x Z)| f (|functions.total s19 Z| e1 e2))
         (and (|set.in POW (s19 x Z)| f (|functions.partial s19 Z| e1 e2))
              (|set.in POW (s19 x Z)| f (|relations.total s19 Z| e1 e2))))))
  :named |ax:def.tfun (s19 x Z)|))
(declare-fun |interval| (|Z| |Z|) |POW Z|)
 (assert (!
    (forall ((l |Z|) (u |Z|) (e |Z|))
        (= (|set.in Z| e (|interval| l u))
            (and (<= l e) (<= e u))))
    :named |ax.set.in.interval|))
(declare-const |set.empty s19| |POW s19|)
(assert (!
  (forall ((e |s19|)) (not (|set.in s19| e |set.empty s19|)))
  :named |ax.set.in.empty s19|))
(assert (!
  (not
    (|set.in POW (s19 x Z)| |set.empty (s19 x Z)| (|functions.total s19 Z| |set.empty s19| (|interval| (- 2147483647) 2147483647))))
  :named |Goal|))
(check-sat)
(exit)
